HUN,8,6,272
0,75,5,53,1,94,3,71,4,22,2,61
4,24,3,66,2,59,0,42,5,3,1,30
4,76,1,100,0,57,3,78,2,92,5,30
1,55,4,26,0,85,3,50,5,80,2,72
4,59,5,42,0,24,2,3,3,60,1,64
5,95,0,81,2,65,3,77,1,71,4,6
1,75,0,75,4,42,3,11,2,7,5,75
3,58,1,82,5,38,0,11,2,22,4,6
